
ACE v2.1 

  instance
    name:PyCSP

  Loading variables...

  Loading constraints...

  domains
    types:1  values:15  sizes:[1:15]
  variables
    count:15  fixed:15  arrays:1  degrees:[11:4,12:8,13:3]
  constraints
    count:41  specific:11  groups:2  arities:[3:5,4:30,6:4,10:2]
    distribution:[Cardinality:5,ConstraintIntension:30,LexicographicLE:6]
    intStructures:(1,shared:29)
    wck:0.37  cpu:1.296  mem:22M45

  Building solver... 

  solver
    guaranteedAC:true
    wck:0.41  cpu:1.328  mem:23M993

  preprocessing
    effs:1  revisions:(1,useless=0)  values:14  unsat:true
    wck:0.001  cpu:1.328  mem:23M993


  global
    effs:1  revisions:(1,useless=0)
    stop:FULL_EXPLORATION
    wck:0.42  cpu:1.328  mem:24M142

s UNSATISFIABLE

d WRONG DECISIONS 0
d FOUND SOLUTIONS 0
d COMPLETE EXPLORATION

c real time : 1.328
